Set parameter TSPort to value 51199
Set parameter TokenServer to value "open-license1.lanl.gov"
Set parameter TimeLimit to value 4096
Set parameter Threads to value 1
Gurobi Optimizer version 10.0.3 build v10.0.3rc0 (linux64)

CPU model: Intel(R) Xeon(R) CPU E5-2695 v4 @ 2.10GHz, instruction set [SSE2|AVX|AVX2]
Thread count: 36 physical cores, 72 logical processors, using up to 1 threads

Optimize a model with 0 rows, 1940 columns and 0 nonzeros
Model fingerprint: 0x3c13a515
Model has 8856 quadratic objective terms
Variable types: 0 continuous, 1940 integer (1940 binary)
Coefficient statistics:
  Matrix range     [0e+00, 0e+00]
  Objective range  [2e+00, 3e+01]
  QObjective range [8e+00, 8e+00]
  Bounds range     [1e+00, 1e+00]
  RHS range        [0e+00, 0e+00]
Found heuristic solution: objective 0.0000000
Found heuristic solution: objective -3276.000000
Found heuristic solution: objective -11862.00000
Found heuristic solution: objective -11898.00000
Presolve removed 0 rows and 3 columns
Presolve time: 0.37s
Presolved: 8851 rows, 10788 columns, 26553 nonzeros
Variable types: 0 continuous, 10788 integer (10788 binary)

Root relaxation: objective -1.660000e+04, 2825 iterations, 0.04 seconds (0.02 work units)

    Nodes    |    Current Node    |     Objective Bounds      |     Work
 Expl Unexpl |  Obj  Depth IntInf | Incumbent    BestBd   Gap | It/Node Time

     0     0 -16600.000    0 1937 -11898.000 -16600.000  39.5%     -    0s
     0     0 -15484.000    0 2491 -11898.000 -15484.000  30.1%     -    1s
     0     0 -15323.333    0 2601 -11898.000 -15323.333  28.8%     -    1s
     0     0 -15317.333    0 2601 -11898.000 -15317.333  28.7%     -    1s
     0     0 -15008.200    0 2864 -11898.000 -15008.200  26.1%     -    2s
     0     0 -15008.200    0 2806 -11898.000 -15008.200  26.1%     -    2s
     0     2 -15008.193    0 2800 -11898.000 -15008.193  26.1%     -    3s
    72    74 -14700.533   36 3127 -11898.000 -14996.867  26.0%   123    6s
   326   328 -13722.533  164 3710 -11898.000 -14996.867  26.0%  94.5   10s
   702   704 -12623.533  352 3894 -11898.000 -14996.867  26.0%  75.8   15s
   945   947 -12067.750  475 3611 -11898.000 -14996.867  26.0%  68.2   20s
  1104  1053 -12621.533  352 1937 -11898.000 -14996.348  26.0%  62.4   25s
  1108  1056 -14281.533   86 3550 -11898.000 -14281.533  20.0%  62.2   30s
  1116  1061 -12366.083  408 4104 -11898.000 -13995.868  17.6%  61.7   46s
  1117  1062 -13634.533  177 4324 -11898.000 -13936.271  17.1%  61.7   59s
  1118  1063 -12725.700  323 4589 -11898.000 -13918.351  17.0%  61.6   66s
  1120  1064 -12242.083  432 4634 -11898.000 -13911.639  16.9%  61.5   70s
  1128  1069 -13705.270  133 5017 -11898.000 -13705.270  15.2%  61.1  111s
  1129  1070 -11994.250  499 5440 -11898.000 -13656.442  14.8%  61.0  140s
  1130  1071 -12222.083  437 5580 -11898.000 -13645.519  14.7%  60.9  149s
  1131  1071 -13641.144   31 5697 -11898.000 -13641.144  14.7%  60.9  154s
  1132  1072 -13639.474  100 5795 -11898.000 -13639.474  14.6%  60.8  157s
  1134  1073 -13628.533  178 5880 -11898.000 -13638.493  14.6%  60.7  160s
  1141  1078 -13484.476   79 6374 -11898.000 -13484.476  13.3%  60.4  231s
  1142  1079 -12032.750  485 6682 -11898.000 -13455.440  13.1%  60.3  262s
  1143  1079 -11960.750  512 6846 -11898.000 -13447.516  13.0%  60.3  277s
  1144  1080 -13393.533  213 6918 -11898.000 -13444.564  13.0%  60.2  284s
  1145  1081 -11954.750  514 6900 -11898.000 -13443.800  13.0%  60.1  288s
  1146  1081 -12643.200  341 6960 -11898.000 -13443.474  13.0%  60.1  290s
  1151  1085 -13202.867  243 7034 -11898.000 -13443.224  13.0%  59.8  295s
  1152  1085 -13327.297   49 7470 -11898.000 -13327.297  12.0%  59.8  376s
  1153  1086 -13306.212  108 7705 -11898.000 -13306.212  11.8%  59.7  418s
  1154  1087 -12536.333  370 7852 -11898.000 -13301.123  11.8%  59.7  435s
  1155  1087 -13298.985  151 7907 -11898.000 -13298.985  11.8%  59.6  446s
  1156  1088 -12948.700  283 8011 -11898.000 -13298.249  11.8%  59.6  450s
  1158  1089 -12708.700  328 8027 -11898.000 -13297.716  11.8%  59.5  456s
  1162  1092 -13297.653   21 8092 -11898.000 -13297.653  11.8%  59.3  460s
  1163  1093 -12215.083  439 8522 -11898.000 -13209.902  11.0%  59.2  559s
  1164  1093 -12491.333  381 8712 -11898.000 -13195.572  10.9%  59.2  605s
  1165  1094 -13192.647   21 8726 -11898.000 -13192.647  10.9%  59.1  621s
  1166  1095 -13191.537  157 8780 -11898.000 -13191.537  10.9%  59.1  630s
  1167  1095 -12192.083  444 8785 -11898.000 -13190.988  10.9%  59.0  638s
  1168  1096 -12881.700  293 8832 -11898.000 -13190.892  10.9%  59.0  640s
  1172  1099 -11976.750  506 8846 -11898.000 -13190.796  10.9%  58.8  646s
  1173  1099 -12425.333  394 8767 -11898.000 -13152.092  10.5%  58.7  723s
  1174  1100 -11934.750  522 8837 -11898.000 -13145.580  10.5%  58.7  757s
  1175  1101 -12821.700  305 8923 -11898.000 -13143.900  10.5%  58.6  770s
  1177  1102 -12227.083  435 8964 -11898.000 -13143.400  10.5%  58.5  778s
  1179  1103 -12058.750  477 8964 -11898.000 -13143.310  10.5%  58.4  781s
  1182  1105 -13113.255   50 8885 -11898.000 -13113.255  10.2%  58.3  854s
  1183  1106 -13107.596  240 9022 -11898.000 -13107.596  10.2%  58.2  892s
  1184  1107 -13106.592  149 9089 -11898.000 -13106.592  10.2%  58.2  902s
  1185  1107 -11959.750  511 9111 -11898.000 -13106.428  10.2%  58.1  906s
  1189  1110 -13106.343  182 9130 -11898.000 -13106.343  10.2%  57.9  911s
  1190  1111 -13087.791  122 9010 -11898.000 -13087.791  10.0%  57.9  970s
  1191  1111 -12299.083  423 9097 -11898.000 -13084.242  10.0%  57.8  999s
  1192  1112 -11937.750  520 9141 -11898.000 -13083.365  10.0%  57.8 1008s
  1193  1113 -13083.136   48 9140 -11898.000 -13083.136  10.0%  57.7 1012s
  1195  1114 -13083.059    7 9192 -11898.000 -13083.059  10.0%  57.6 1015s
  1198  1116 -13064.987   47 9099 -11898.000 -13064.987  9.81%  57.5 1078s
  1199  1117 -13061.134  197 9143 -11898.000 -13061.134  9.78%  57.4 1104s
  1200  1117 -12375.083  406 9209 -11898.000 -13060.323  9.77%  57.4 1113s
  1201  1118 -11943.750  518 9246 -11898.000 -13060.121  9.77%  57.3 1117s
  1204  1120 -12621.533  352 9261 -11898.000 -13060.062  9.77%  57.2 1121s
  1205  1121 -12668.200  336 9174 -11898.000 -13046.376  9.65%  57.2 1175s
  1206  1121 -13043.412   21 9248 -11898.000 -13043.412  9.63%  57.1 1197s
  1207  1122 -12999.700  274 9258 -11898.000 -13042.806  9.62%  57.1 1206s
  1209  1123 -11933.750  522 9309 -11898.000 -13042.578  9.62%  57.0 1211s
  1213  1126 -13029.993   13 9259 -11898.000 -13029.993  9.51%  56.8 1270s
  1214  1127 -12940.700  284 9327 -11898.000 -13026.495  9.48%  56.7 1299s
  1215  1127 -11968.750  508 9326 -11898.000 -13025.916  9.48%  56.7 1307s
  1216  1128 -12366.083  408 9356 -11898.000 -13025.727  9.48%  56.6 1311s
  1218  1129 -12725.700  323 9382 -11898.000 -13025.647  9.48%  56.5 1315s
  1222  1132 -13013.714  142 9290 -11898.000 -13013.714  9.38%  56.4 1375s
  1223  1133 -12180.083  446 9336 -11898.000 -13011.145  9.36%  56.3 1399s
  1224  1133 -13010.756  201 9363 -11898.000 -13010.756  9.35%  56.3 1405s
  1226  1135 -13010.623   26 9407 -11898.000 -13010.623  9.35%  56.2 1410s
  1230  1137 -12222.083  437 9340 -11898.000 -13000.739  9.27%  56.0 1461s
  1231  1138 -12998.379   31 9412 -11898.000 -12998.379  9.25%  55.9 1483s
  1232  1139 -12997.814  100 9453 -11898.000 -12997.814  9.24%  55.9 1492s
  1233  1139 -12097.750  468 9476 -11898.000 -12997.665  9.24%  55.9 1496s
  1236  1141 -12166.083  453 9495 -11898.000 -12997.600  9.24%  55.7 1500s
  1237  1142 -11922.750  526 9393 -11898.000 -12988.602  9.17%  55.7 1555s
  1238  1143 -12986.137   78 9468 -11898.000 -12986.137  9.15%  55.6 1579s
  1239  1143 -12985.688  152 9491 -11898.000 -12985.688  9.14%  55.6 1586s
  1240  1144 -12985.576  115 9495 -11898.000 -12985.576  9.14%  55.5 1590s
  1244  1147 -12977.203  213 9450 -11898.000 -12977.203  9.07%  55.4 1646s
  1245  1147 -11954.750  514 9520 -11898.000 -12974.927  9.05%  55.3 1671s
  1246  1148 -12643.200  341 9536 -11898.000 -12974.592  9.05%  55.3 1677s
  1247  1149 -12104.750  467 9571 -11898.000 -12974.506  9.05%  55.2 1680s
  1251  1151 -12968.225  243 9473 -11898.000 -12968.225  8.99%  55.0 1728s
  1252  1152 -12966.498   49 9534 -11898.000 -12966.498  8.98%  55.0 1751s
  1253  1153 -12966.081  108 9557 -11898.000 -12966.081  8.98%  55.0 1758s
  1254  1153 -12536.333  370 9580 -11898.000 -12965.975  8.98%  54.9 1761s
  1256  1155 -12948.700  283 9571 -11898.000 -12965.887  8.98%  54.8 1765s
  1259  1157 -12961.821  277 9479 -11898.000 -12961.821  8.94%  54.7 1799s
  1260  1157 -12457.333  387 9532 -11898.000 -12960.754  8.93%  54.7 1813s
  1261  1158 -12960.532    5 9556 -11898.000 -12960.532  8.93%  54.6 1819s
  1262  1159 -12960.486   21 9579 -11898.000 -12960.486  8.93%  54.6 1821s
  1266  1161 -12954.711  157 9512 -11898.000 -12954.711  8.88%  54.4 1870s
  1267  1162 -12192.083  444 9585 -11898.000 -12953.540  8.87%  54.4 1890s
  1268  1163 -12881.700  293 9628 -11898.000 -12953.312  8.87%  54.3 1895s
  1270  1164 -12953.225   34 9645 -11898.000 -12953.225  8.87%  54.2 1900s
  1274  1167 -11934.750  522 9576 -11898.000 -12949.465  8.84%  54.1 1938s
  1275  1167 -12821.700  305 9614 -11898.000 -12948.237  8.83%  54.0 1957s
  1276  1168 -12947.896  156 9656 -11898.000 -12947.896  8.82%  54.0 1963s
  1277  1169 -12227.083  435 9660 -11898.000 -12947.815  8.82%  53.9 1967s
  1279  1170 -12058.750  477 9681 -11898.000 -12947.786  8.82%  53.8 1970s
  1281  1171 -12947.312  222 9642 -11898.000 -12947.312  8.82%  53.8 1977s
  1283  1173 -12947.199  240 9660 -11898.000 -12947.199  8.82%  53.7 1981s
  1297  1183 -12479.333  383 1937 -11898.000 -12947.190  8.82%  1207 1985s
  1300  1185 -12375.083  406 4457 -11898.000 -12947.190  8.82%  1204 2004s
  1301  1186 -11943.750  518 5747 -11898.000 -12947.190  8.82%  1203 2059s
  1302  1187 -11980.750  504 7288 -11898.000 -12947.190  8.82%  1203 2147s
  1303  1187 -12563.333  366 8996 -11898.000 -12947.190  8.82%  1202 2297s
  1304  1188 -12621.533  352 9376 -11898.000 -12947.190  8.82%  1201 2426s
  1305  1189 -12668.200  336 9518 -11898.000 -12947.190  8.82%  1200 2482s
  1306  1189 -12947.190   21 9568 -11898.000 -12947.190  8.82%  1199 2503s
  1307  1190 -12947.190  274 9605 -11898.000 -12947.190  8.82%  1198 2513s
  1308  1191 -12947.190   86 9626 -11898.000 -12947.190  8.82%  1197 2518s
  1309  1191 -11933.750  522 9662 -11898.000 -12947.190  8.82%  1196 2522s
  1312  1193 -11922.750  526 9684 -11898.000 -12947.190  8.82%  1193 2527s
  1313  1194 -12934.517   13 9622 -11898.000 -12934.517  8.71%  1192 2601s
  1314  1195 -12933.219  284 9611 -11898.000 -12933.219  8.70%  1192 2621s
  1315  1195 -11968.750  508 9631 -11898.000 -12932.911  8.70%  1191 2629s
  1316  1196 -12366.083  408 9672 -11898.000 -12932.836  8.70%  1190 2631s
  1318  1197 -12725.700  323 9684 -11898.000 -12932.807  8.70%  1188 2636s
  1319  1198 -12479.333  383 9665 -11898.000 -12923.634  8.62%  1187 2700s
  1320  1199 -12242.083  432 9653 -11898.000 -12922.134  8.61%  1186 2721s
  1321  1199 -12921.898   90 9714 -11898.000 -12921.898  8.61%  1185 2727s
  1322  1200 -12921.841  142 9727 -11898.000 -12921.841  8.61%  1184 2730s
  1325  1202 -12921.798  182 9744 -11898.000 -12921.798  8.60%  1182 2735s
  1326  1203 -12914.876   26 9697 -11898.000 -12914.876  8.55%  1181 2787s
  1327  1203 -12086.250  471 9726 -11898.000 -12913.623  8.54%  1180 2807s
  1328  1204 -12913.255  133 9743 -11898.000 -12913.255  8.53%  1179 2816s
  1329  1205 -11994.250  499 9736 -11898.000 -12913.139  8.53%  1178 2820s
  1331  1206 -12912.992   31 9767 -11898.000 -12912.992  8.53%  1176 2825s
  1334  1208 -12907.543  178 9733 -11898.000 -12907.543  8.48%  1174 2875s
  1335  1209 -12529.333  371 9776 -11898.000 -12906.666  8.48%  1173 2890s
  1336  1209 -12166.083  453 9781 -11898.000 -12906.461  8.48%  1172 2897s
  1337  1210 -11922.750  526 9792 -11898.000 -12906.407  8.48%  1171 2900s
  1340  1212 -12906.353  115 9821 -11898.000 -12906.353  8.47%  1168 2906s
  1341  1213 -12900.015   79 9750 -11898.000 -12900.015  8.42%  1168 2963s
  1342  1213 -12032.750  485 9817 -11898.000 -12898.697  8.41%  1167 2984s
  1343  1214 -11960.750  512 9826 -11898.000 -12898.369  8.41%  1166 2993s
  1344  1215 -12898.316  213 9848 -11898.000 -12898.316  8.41%  1165 2996s
  1347  1217 -12104.750  467 9872 -11898.000 -12898.276  8.41%  1162 3000s
  1349  1218 -12892.507   80 9772 -11898.000 -12892.507  8.36%  1161 3055s
  1350  1219 -12891.482   52 9822 -11898.000 -12891.482  8.35%  1160 3074s
  1351  1219 -12891.224  243 9814 -11898.000 -12891.224  8.35%  1159 3082s
  1352  1220 -12891.133   49 9840 -11898.000 -12891.133  8.35%  1158 3085s
  1355  1222 -12891.091  151 9871 -11898.000 -12891.091  8.35%  1156 3092s
  1356  1223 -12886.523  283 9791 -11898.000 -12886.523  8.31%  1155 3138s
  1357  1223 -11938.750  521 9842 -11898.000 -12885.611  8.30%  1154 3158s
  1358  1224 -12708.700  328 9858 -11898.000 -12885.429  8.30%  1153 3165s
  1361  1226 -12885.385    5 9881 -11898.000 -12885.385  8.30%  1150 3170s
  1363  1227 -12215.083  439 9786 -11898.000 -12881.605  8.27%  1149 3212s
  1364  1228 -12491.333  381 9827 -11898.000 -12880.543  8.26%  1148 3232s
  1365  1229 -12880.339   21 9862 -11898.000 -12880.339  8.26%  1147 3239s
  1366  1229 -12880.248  157 9883 -11898.000 -12880.248  8.26%  1146 3242s
  1367  1230 -12192.083  444 9905 -11898.000 -12880.206  8.26%  1145 3245s
  1370  1232 -12880.183   34 9920 -11898.000 -12880.183  8.26%  1143 3250s
  1371  1233 -12877.354   23 9850 -11898.000 -12877.354  8.23%  1142 3284s
  1372  1233 -11976.750  506 9884 -11898.000 -12876.375  8.22%  1141 3304s
  1373  1234 -12425.333  394 9906 -11898.000 -12876.254  8.22%  1140 3310s
  1376  1236 -12876.191  156 9933 -11898.000 -12876.191  8.22%  1138 3318s
  1377  1237 -12227.083  435 9874 -11898.000 -12871.554  8.18%  1137 3370s
  1378  1237 -12425.333  394 9929 -11898.000 -12870.134  8.17%  1136 3396s
  1379  1238 -12058.750  477 9929 -11898.000 -12869.929  8.17%  1135 3404s
  1380  1239 -12869.868  126 9942 -11898.000 -12869.868  8.17%  1135 3408s
  1381  1239 -12869.839  222 9956 -11898.000 -12869.839  8.17%  1134 3410s
  1383  1241 -12869.827  240 9958 -11898.000 -12869.827  8.17%  1132 3415s
  1384  1241 -12866.289  149 9883 -11898.000 -12866.289  8.14%  1131 3457s
  1385  1242 -11959.750  511 9922 -11898.000 -12865.283  8.13%  1131 3477s
  1386  1243 -12639.200  342 9927 -11898.000 -12865.081  8.13%  1130 3485s
  1389  1245 -12864.962  182 9951 -11898.000 -12864.962  8.13%  1127 3492s
  1392  1247 -11937.750  520 9967 -11898.000 -12864.933  8.13%  1125 3498s
  1393  1247 -12861.021   48 9911 -11898.000 -12861.021  8.09%  1124 3543s
  1394  1248 -11934.750  522 9953 -11898.000 -12860.153  8.09%  1123 3561s
  1395  1249 -12859.935    7 9969 -11898.000 -12859.935  8.08%  1122 3569s
  1396  1249 -12417.333  395 9989 -11898.000 -12859.899  8.08%  1122 3572s
  1398  1251 -12859.886   47 9997 -11898.000 -12859.886  8.08%  1120 3577s
  1399  1251 -12857.483  197 9945 -11898.000 -12857.483  8.06%  1119 3611s
  1400  1252 -12375.083  406 9990 -11898.000 -12856.836  8.06%  1118 3627s
  1401  1253 -11943.750  518 10006 -11898.000 -12856.667  8.06%  1118 3633s
  1402  1253 -11980.750  504 10012 -11898.000 -12856.638  8.06%  1117 3635s
  1404  1255 -12621.533  352 10032 -11898.000 -12856.625  8.06%  1115 3640s
  1405  1255 -12668.200  336 9928 -11898.000 -12854.477  8.04%  1114 3670s
  1406  1256 -12853.935   21 9965 -11898.000 -12853.935  8.03%  1114 3684s
  1407  1257 -12853.840  274 9984 -11898.000 -12853.840  8.03%  1113 3689s
  1408  1257 -12853.820   86 10002 -11898.000 -12853.820  8.03%  1112 3691s
  1411  1259 -12563.333  366 9930 -11898.000 -12851.475  8.01%  1110 3729s
  1412  1260 -11922.750  526 9962 -11898.000 -12850.847  8.01%  1109 3744s
  1413  1261 -12850.706   13 9997 -11898.000 -12850.706  8.01%  1108 3749s
  1414  1261 -12850.660  284 9990 -11898.000 -12850.660  8.01%  1107 3752s
  1416  1263 -12366.083  408 10010 -11898.000 -12850.643  8.01%  1106 3756s
  1417  1263 -12847.508  177 9958 -11898.000 -12847.508  7.98%  1105 3796s
  1418  1264 -12725.700  323 10005 -11898.000 -12846.634  7.97%  1104 3815s
  1419  1265 -12479.333  383 10012 -11898.000 -12846.463  7.97%  1103 3823s
  1420  1265 -12242.083  432 10031 -11898.000 -12846.421  7.97%  1103 3825s
  1423  1267 -12180.083  446 10037 -11898.000 -12846.401  7.97%  1100 3830s
  1424  1268 -12844.521  201 9967 -11898.000 -12844.521  7.96%  1100 3858s
  1425  1269 -12843.934  182 10006 -11898.000 -12843.934  7.95%  1099 3873s
  1426  1269 -12843.755   26 10017 -11898.000 -12843.755  7.95%  1098 3880s
  1428  1271 -12843.676  133 10041 -11898.000 -12843.676  7.95%  1096 3886s
  1430  1272 -12222.083  437 10066 -11898.000 -12843.666  7.95%  1095 3890s
  1431  1273 -12841.816   31 9972 -11898.000 -12841.816  7.93%  1094 3918s
  1432  1273 -12841.305  100 10027 -11898.000 -12841.305  7.93%  1093 3932s
  1433  1274 -12097.750  468 10026 -11898.000 -12841.158  7.93%  1093 3938s
  1434  1275 -12841.117  178 10047 -11898.000 -12841.117  7.93%  1092 3941s
  1436  1276 -12166.083  453 10064 -11898.000 -12841.107  7.93%  1090 3945s
  1437  1277 -11922.750  526 9994 -11898.000 -12839.405  7.91%  1090 3974s
  1438  1277 -12838.925   78 10028 -11898.000 -12838.925  7.91%  1089 3988s
  1439  1278 -12838.830  152 10045 -11898.000 -12838.830  7.91%  1088 3992s
  1441  1279 -12838.802   79 10069 -11898.000 -12838.802  7.91%  1087 3995s
  1443  1281 -11960.750  512 9997 -11898.000 -12837.717  7.90%  1085 4017s
  1444  1281 -12837.421  213 10010 -11898.000 -12837.421  7.90%  1084 4027s
  1445  1282 -11954.750  514 10034 -11898.000 -12837.358  7.90%  1084 4030s
  1448  1284 -12008.750  494 10062 -11898.000 -12837.328  7.89%  1081 4036s
  1449  1285 -12835.531   80 10012 -11898.000 -12835.531  7.88%  1081 4064s
  1450  1285 -12834.977   52 10047 -11898.000 -12834.977  7.88%  1080 4080s
  1451  1286 -12834.862  243 10071 -11898.000 -12834.862  7.87%  1079 4085s
  1453  1287 -12834.800  108 10084 -11898.000 -12834.800  7.87%  1078 4090s

Cutting planes:
  Gomory: 53
  MIR: 288
  Flow cover: 3909
  Zero half: 1425
  Mod-K: 36
  RLT: 372
  BQP: 592

Explored 1455 nodes (3142150 simplex iterations) in 4096.00 seconds (6201.22 work units)
Thread count was 1 (of 72 available processors)

Solution count 4: -11898 -11862 -3276 0 

Time limit reached
Best objective -1.189800000000e+04, best bound -1.283400000000e+04, gap 7.8669%

User-callback calls 25288, time in user-callback 0.13 sec

BQP_SOLUTION, 1940, 8856, -4152.000000, 4096.001972, 1, -1, 1, 1, -1, 1, -1, 1, 1, 1, -1, 1, 1, -1, 1, 1, 1, 1, 1, -1, 1, 1, 1, -1, 1, -1, 1, 1, -1, 1, -1, 1, -1, -1, 1, 1, 1, -1, -1, 1, -1, 1, 1, -1, 1, -1, -1, 1, 1, 1, 1, -1, 1, 1, -1, -1, 1, 1, 1, 1, 1, 1, -1, 1, 1, 1, 1, 1, 1, -1, -1, 1, -1, -1, 1, 1, 1, 1, 1, -1, 1, -1, -1, 1, 1, 1, -1, 1, 1, 1, -1, 1, -1, 1, 1, 1, 1, -1, 1, -1, 1, 1, 1, 1, 1, -1, 1, -1, 1, 1, 1, 1, 1, 1, -1, 1, -1, 1, -1, 1, 1, 1, 1, -1, 1, -1, -1, 1, 1, 1, 1, 1, -1, 1, -1, -1, 1, 1, 1, 1, -1, -1, -1, -1, 1, -1, 1, 1, 1, 1, -1, -1, 1, -1, 1, 1, 1, 1, 1, -1, 1, -1, 1, 1, 1, 1, 1, 1, -1, 1, -1, 1, 1, 1, 1, 1, -1, 1, 1, 1, 1, -1, 1, 1, 1, -1, 1, -1, 1, 1, 1, 1, 1, 1, 1, 1, -1, 1, 1, -1, -1, 1, 1, 1, -1, 1, -1, -1, -1, 1, 1, 1, -1, 1, -1, 1, 1, -1, 1, 1, 1, 1, -1, 1, -1, -1, 1, 1, 1, 1, -1, 1, -1, 1, 1, -1, 1, 1, 1, -1, 1, 1, -1, 1, -1, -1, 1, 1, 1, 1, 1, 1, 1, 1, -1, 1, 1, -1, 1, -1, 1, 1, -1, -1, 1, -1, 1, 1, -1, 1, 1, -1, -1, 1, -1, 1, 1, -1, 1, 1, -1, 1, 1, 1, 1, 1, -1, 1, 1, 1, -1, 1, 1, -1, 1, -1, 1, -1, 1, -1, 1, 1, 1, 1, 1, 1, -1, 1, -1, 1, -1, 1, -1, -1, 1, -1, -1, -1, 1, -1, 1, -1, 1, -1, -1, 1, 1, 1, -1, -1, -1, 1, -1, 1, -1, 1, -1, 1, 1, -1, 1, -1, 1, -1, 1, -1, 1, -1, 1, 1, 1, -1, -1, 1, 1, 1, -1, 1, 1, 1, -1, 1, -1, 1, -1, -1, -1, 1, -1, -1, -1, 1, 1, 1, -1, 1, 1, -1, -1, 1, 1, 1, 1, 1, -1, 1, -1, 1, -1, -1, 1, 1, -1, -1, 1, -1, 1, -1, -1, 1, -1, 1, -1, 1, -1, -1, 1, -1, 1, 1, -1, -1, 1, -1, -1, -1, -1, 1, 1, -1, 1, 1, -1, -1, 1, -1, 1, 1, -1, -1, 1, -1, -1, -1, 1, 1, -1, -1, 1, -1, -1, -1, -1, -1, 1, -1, -1, 1, 1, -1, 1, -1, 1, -1, -1, 1, 1, -1, -1, -1, 1, -1, 1, -1, -1, 1, -1, 1, -1, 1, -1, -1, 1, -1, 1, -1, 1, -1, 1, -1, 1, 1, -1, -1, 1, -1, 1, 1, 1, 1, -1, -1, 1, 1, 1, -1, 1, -1, 1, -1, -1, 1, 1, -1, 1, -1, -1, 1, 1, -1, 1, 1, -1, 1, -1, 1, 1, -1, 1, -1, 1, 1, 1, -1, 1, -1, -1, 1, 1, 1, -1, 1, -1, -1, 1, 1, -1, 1, -1, 1, -1, 1, 1, -1, 1, 1, 1, 1, 1, -1, -1, 1, -1, 1, 1, 1, 1, 1, 1, -1, 1, 1, -1, 1, 1, 1, 1, 1, 1, 1, 1, -1, 1, -1, -1, 1, 1, 1, 1, 1, -1, 1, -1, 1, -1, 1, 1, 1, 1, -1, -1, 1, 1, -1, 1, 1, -1, 1, -1, 1, -1, -1, 1, 1, 1, 1, 1, -1, 1, 1, -1, 1, 1, -1, 1, 1, -1, -1, 1, -1, -1, -1, 1, 1, 1, 1, -1, 1, 1, 1, 1, 1, 1, 1, -1, -1, 1, -1, 1, 1, -1, 1, 1, -1, -1, 1, 1, -1, -1, 1, 1, 1, 1, 1, -1, -1, 1, -1, 1, 1, -1, -1, 1, 1, 1, -1, -1, 1, -1, -1, -1, 1, -1, 1, 1, -1, 1, 1, -1, -1, 1, 1, 1, -1, -1, 1, 1, -1, -1, -1, 1, -1, -1, 1, -1, 1, 1, -1, 1, 1, -1, -1, 1, -1, 1, -1, -1, 1, -1, 1, -1, 1, 1, 1, -1, -1, 1, 1, 1, -1, 1, -1, 1, -1, -1, -1, 1, 1, -1, -1, -1, 1, -1, -1, 1, 1, 1, -1, 1, -1, 1, -1, -1, 1, 1, 1, -1, 1, 1, 1, -1, 1, 1, -1, 1, -1, 1, 1, 1, -1, -1, 1, 1, 1, -1, 1, 1, -1, -1, 1, 1, 1, -1, 1, 1, 1, -1, -1, -1, 1, 1, 1, -1, 1, -1, 1, -1, 1, 1, -1, -1, 1, -1, 1, -1, 1, 1, 1, 1, -1, 1, 1, 1, -1, -1, 1, 1, 1, 1, -1, 1, 1, -1, 1, -1, 1, 1, -1, -1, 1, 1, -1, -1, 1, 1, -1, 1, 1, -1, 1, 1, 1, -1, 1, 1, 1, -1, 1, -1, -1, 1, -1, 1, 1, -1, 1, 1, 1, -1, 1, -1, 1, 1, 1, -1, 1, 1, -1, -1, -1, 1, 1, 1, 1, 1, 1, 1, 1, 1, 1, 1, 1, -1, 1, 1, -1, -1, 1, 1, -1, 1, -1, 1, -1, 1, -1, 1, 1, 1, -1, 1, 1, -1, -1, 1, 1, 1, 1, -1, 1, -1, 1, 1, -1, 1, 1, 1, 1, -1, 1, -1, -1, 1, 1, 1, 1, 1, 1, -1, -1, -1, 1, 1, 1, 1, -1, 1, 1, -1, -1, -1, 1, 1, 1, -1, -1, -1, 1, -1, 1, 1, 1, 1, 1, -1, -1, 1, -1, -1, 1, 1, 1, -1, -1, 1, 1, -1, -1, 1, 1, 1, -1, 1, 1, -1, 1, -1, 1, 1, 1, -1, -1, -1, 1, 1, 1, 1, 1, -1, 1, -1, 1, 1, 1, 1, 1, -1, 1, 1, -1, 1, -1, -1, 1, 1, -1, 1, 1, -1, -1, 1, 1, 1, 1, -1, 1, 1, -1, -1, 1, 1, 1, 1, 1, -1, -1, 1, 1, -1, -1, 1, -1, 1, -1, 1, -1, 1, -1, -1, 1, 1, 1, -1, 1, -1, 1, 1, -1, 1, 1, 1, 1, 1, -1, 1, 1, -1, 1, 1, -1, 1, -1, 1, -1, 1, -1, -1, -1, 1, 1, 1, -1, 1, -1, -1, 1, 1, -1, -1, 1, 1, 1, 1, -1, -1, -1, 1, 1, -1, 1, 1, -1, 1, 1, -1, 1, -1, 1, 1, 1, -1, -1, -1, 1, -1, 1, -1, 1, -1, 1, -1, -1, 1, 1, 1, 1, -1, 1, -1, 1, -1, 1, -1, 1, -1, 1, 1, -1, 1, -1, 1, -1, 1, -1, 1, 1, -1, -1, 1, -1, 1, 1, -1, 1, 1, 1, -1, 1, -1, -1, 1, 1, 1, 1, 1, -1, -1, 1, 1, 1, -1, -1, 1, 1, -1, 1, 1, -1, 1, 1, -1, -1, 1, -1, 1, 1, -1, 1, -1, 1, 1, -1, 1, 1, -1, 1, 1, -1, 1, 1, 1, -1, 1, 1, 1, 1, 1, 1, 1, -1, -1, -1, 1, -1, -1, -1, -1, -1, 1, -1, 1, -1, 1, -1, 1, -1, 1, -1, -1, -1, -1, 1, -1, -1, 1, 1, 1, -1, -1, 1, -1, -1, 1, 1, 1, -1, -1, -1, -1, 1, -1, 1, 1, -1, 1, -1, -1, 1, 1, -1, 1, 1, -1, -1, -1, -1, 1, -1, -1, 1, 1, 1, 1, -1, -1, -1, -1, -1, 1, 1, -1, -1, -1, -1, -1, -1, -1, 1, -1, 1, -1, -1, -1, -1, -1, -1, 1, 1, 1, 1, -1, 1, -1, 1, -1, -1, 1, 1, -1, -1, -1, 1, -1, -1, 1, 1, 1, -1, -1, -1, 1, -1, -1, 1, 1, 1, -1, -1, 1, -1, -1, -1, -1, 1, -1, -1, 1, -1, 1, -1, -1, -1, 1, -1, -1, -1, 1, -1, -1, 1, -1, 1, 1, -1, -1, 1, 1, -1, -1, -1, 1, -1, -1, -1, -1, 1, -1, -1, -1, -1, -1, -1, 1, 1, 1, -1, -1, -1, -1, -1, -1, 1, -1, 1, -1, -1, -1, -1, 1, -1, 1, -1, 1, -1, -1, -1, -1, -1, 1, -1, -1, 1, 1, -1, -1, -1, 1, -1, -1, 1, 1, -1, -1, -1, -1, -1, -1, -1, 1, 1, -1, 1, 1, -1, -1, -1, 1, 1, -1, -1, -1, -1, -1, -1, -1, 1, -1, 1, -1, -1, -1, -1, -1, -1, 1, 1, 1, -1, -1, 1, -1, -1, -1, 1, 1, 1, -1, -1, -1, -1, 1, -1, 1, 1, 1, -1, -1, -1, -1, 1, -1, 1, 1, 1, -1, -1, -1, -1, 1, -1, 1, 1, 1, -1, -1, 1, -1, 1, -1, 1, -1, 1, 1, -1, -1, -1, -1, -1, 1, 1, 1, 1, -1, 1, 1, -1, -1, 1, -1, 1, 1, 1, -1, 1, -1, 1, 1, -1, -1, 1, -1, -1, 1, 1, 1, -1, 1, -1, -1, 1, -1, -1, 1, 1, 1, 1, 1, -1, -1, 1, -1, 1, 1, 1, -1, 1, -1, 1, -1, -1, 1, 1, -1, -1, 1, -1, 1, -1, 1, -1, 1, 1, -1, 1, -1, 1, 1, 1, 1, 1, 1, -1, 1, -1, -1, -1, 1, -1, 1, -1, 1, 1, -1, 1, 1, 1, -1, 1, 1, 1, -1, 1, -1, 1, -1, 1, 1, 1, 1, 1, -1, -1, 1, -1, 1, 1, 1, 1, -1, -1, -1, -1, -1, -1, 1, 1, 1, 1, 1, -1, 1, -1, 1, -1, -1, 1, -1, -1, 1, -1, 1, 1, -1, 1, -1, -1, -1, 1, -1, 1, 1, 1, -1, 1, -1, 1, -1, -1, -1, -1, 1, 1, 1, -1, 1, -1, 1, 1, -1, -1, -1, 1, -1, 1, -1, 1, 1, -1, -1, -1, 1, -1, 1, 1, -1, 1, 1, 1, -1, 1, -1, -1, -1, -1, 1, -1, 1, -1, -1, -1, 1, 1, -1, 1, 1, -1, -1, -1, -1, -1, 1, -1, 1, -1, -1, -1, -1, -1, 1, 1, -1, 1, 1, -1, -1, -1, -1, -1, 1, -1, 1, 1, -1, -1, 1, -1, 1, 1, 1, 1, 1, -1, -1, -1, -1, 1, 1, -1, 1, -1, 1, -1, -1, -1, -1, 1, 1, 1, -1, -1, -1, -1, 1, 1, -1, 1, 1, 1, -1, 1, -1, -1, -1, -1, 1, 1, -1, -1, -1, -1, -1, -1, 1, -1, 1, -1, -1, 1, -1, -1, -1, 1, 1, -1, -1, 1, -1, -1, -1, -1, 1, -1, 1, -1, -1, -1, -1, -1, -1, -1, 1, -1, -1, 1, -1, -1, -1, -1, -1, 1, -1, -1, 1, -1, -1, 1, -1, -1, 1, 1, -1, 1, 1, -1, -1, 1, -1, 1, -1, -1, -1, -1, -1, -1, 1, -1, -1, 1, -1, -1, 1, -1, -1, -1, 1, -1, 1, -1, 1, -1, 1, -1, 1, -1, -1, -1, -1, 1, 1, -1, -1, 1, -1, 1, -1, 1, 1, -1, -1, -1, 1, -1, 1, 1, -1, 1, -1, -1, 1, -1, 1, -1, -1, -1, 1, -1, 1, -1, -1, 1, -1, -1, 1, -1, -1, -1, -1, -1, 1, -1, 1, -1, -1, -1, -1, -1, -1, -1, -1, -1, 1, -1, -1, 1, -1, 1, 1, -1, 1, -1, 1, -1, 1, -1, -1, 1, -1, -1, -1, 1, -1, -1, 1, -1, -1, 1, -1, -1, 1, -1, -1, -1, -1, 1, 1, -1, -1, 1, 1, -1, 1, -1, 1, -1, -1, 1, 1, 1, 1, -1
BQP_DATA, 1940, 8856, -4152.000000, -5088.000000, -11898.000000, -12834.000000, 4096.001972, 5711, 1455
